NAME : AA70.2452303.tour
COMMENT : Cost = 0_2452303
COMMENT : Found by LKH [Keld Helsgaun] Sun Apr 23 15:14:35 2017
TYPE : TOUR
DIMENSION : 144
TOUR_SECTION
1
50
48
120
118
25
95
62
132
2
67
137
43
72
24
94
113
27
97
46
116
20
9
90
79
14
84
22
92
52
122
28
3
98
73
47
117
142
10
80
13
83
69
59
139
32
102
129
45
115
36
106
23
93
57
127
71
141
42
112
33
44
103
114
16
86
21
5
75
91
34
104
144
54
124
66
18
136
88
31
101
15
85
63
133
12
82
61
131
4
74
51
121
19
89
56
126
26
96
53
123
7
77
6
76
49
119
65
135
8
78
38
108
143
17
87
41
111
11
81
60
130
55
125
58
128
37
107
64
134
35
105
40
110
29
99
68
39
138
70
140
109
30
100
-1
EOF
